(set-info :smt-lib-version 2.6)
(set-logic QF_LRA)
(set-info :source |
Fully parameterized specification and verification of a synchronizer   
circuit modeling metastability at various levels of refinement.     
A paper describing this specification, to be published in Designing     
Correct Circuits (DCC), 2006, is available from the authors.            

Geoffrey Brown, Indiana University <geobrown@cs.indiana.edu>
Lee Pike, Galois Connections, Inc. <leepike@galois.com>

Translated into CVC format by Leonardo de Moura.

This benchmark was automatically translated into SMT-LIB format from
CVC format using CVC Lite

|)
(set-info :category "industrial")
(set-info :status sat)
(declare-fun x_0 () Bool)
(declare-fun x_1 () Bool)
(declare-fun x_2 () Real)
(declare-fun x_3 () Real)
(declare-fun x_4 () Bool)
(declare-fun x_5 () Bool)
(declare-fun x_6 () Real)
(declare-fun x_7 () Real)
(declare-fun x_8 () Bool)
(declare-fun x_9 () Bool)
(declare-fun x_10 () Real)
(declare-fun x_11 () Real)
(declare-fun x_12 () Bool)
(declare-fun x_13 () Bool)
(declare-fun x_14 () Real)
(declare-fun x_15 () Real)
(declare-fun x_16 () Bool)
(declare-fun x_17 () Bool)
(declare-fun x_18 () Real)
(declare-fun x_19 () Real)
(declare-fun x_20 () Bool)
(declare-fun x_21 () Bool)
(declare-fun x_22 () Real)
(declare-fun x_23 () Real)
(declare-fun x_24 () Bool)
(declare-fun x_25 () Bool)
(declare-fun x_26 () Real)
(declare-fun x_27 () Real)
(declare-fun x_28 () Bool)
(declare-fun x_29 () Bool)
(declare-fun x_30 () Real)
(declare-fun x_31 () Real)
(declare-fun x_32 () Bool)
(declare-fun x_33 () Bool)
(declare-fun x_34 () Real)
(declare-fun x_35 () Real)
(declare-fun x_36 () Bool)
(declare-fun x_37 () Bool)
(declare-fun x_38 () Real)
(declare-fun x_39 () Real)
(declare-fun x_40 () Real)
(declare-fun x_41 () Real)
(declare-fun x_42 () Real)
(declare-fun x_43 () Real)
(declare-fun x_44 () Real)
(declare-fun x_45 () Real)
(declare-fun x_46 () Real)
(declare-fun x_47 () Real)
(declare-fun x_48 () Real)
(declare-fun x_49 () Real)
(declare-fun x_50 () Bool)
(declare-fun x_51 () Bool)
(declare-fun x_52 () Real)
(declare-fun x_53 () Real)
(declare-fun x_54 () Real)
(declare-fun x_55 () Real)
(declare-fun x_56 () Bool)
(declare-fun x_57 () Bool)
(declare-fun x_58 () Bool)
(declare-fun x_59 () Bool)
(declare-fun x_60 () Bool)
(declare-fun x_61 () Real)
(declare-fun x_62 () Bool)
(declare-fun x_63 () Real)
(declare-fun x_64 () Real)
(declare-fun x_65 () Real)
(declare-fun x_66 () Real)
(declare-fun x_67 () Real)
(declare-fun x_68 () Real)
(declare-fun x_69 () Real)
(declare-fun x_70 () Real)
(declare-fun x_71 () Real)
(declare-fun x_72 () Bool)
(declare-fun x_73 () Real)
(declare-fun x_74 () Bool)
(declare-fun x_75 () Bool)
(declare-fun x_76 () Real)
(declare-fun x_77 () Bool)
(declare-fun x_78 () Real)
(declare-fun x_79 () Real)
(declare-fun x_80 () Real)
(declare-fun x_81 () Real)
(declare-fun x_82 () Real)
(declare-fun x_83 () Real)
(declare-fun x_84 () Real)
(declare-fun x_85 () Real)
(declare-fun x_86 () Bool)
(declare-fun x_87 () Real)
(declare-fun x_88 () Bool)
(declare-fun x_89 () Bool)
(declare-fun x_90 () Real)
(declare-fun x_91 () Bool)
(declare-fun x_92 () Real)
(declare-fun x_93 () Real)
(declare-fun x_94 () Real)
(declare-fun x_95 () Real)
(declare-fun x_96 () Real)
(declare-fun x_97 () Real)
(declare-fun x_98 () Real)
(declare-fun x_99 () Real)
(declare-fun x_100 () Bool)
(declare-fun x_101 () Real)
(declare-fun x_102 () Bool)
(declare-fun x_103 () Bool)
(declare-fun x_104 () Real)
(declare-fun x_105 () Bool)
(declare-fun x_106 () Real)
(declare-fun x_107 () Real)
(declare-fun x_108 () Real)
(declare-fun x_109 () Real)
(declare-fun x_110 () Real)
(declare-fun x_111 () Real)
(declare-fun x_112 () Real)
(declare-fun x_113 () Real)
(declare-fun x_114 () Bool)
(declare-fun x_115 () Real)
(declare-fun x_116 () Bool)
(declare-fun x_117 () Bool)
(declare-fun x_118 () Real)
(declare-fun x_119 () Bool)
(declare-fun x_120 () Real)
(declare-fun x_121 () Real)
(declare-fun x_122 () Real)
(declare-fun x_123 () Real)
(declare-fun x_124 () Real)
(declare-fun x_125 () Real)
(declare-fun x_126 () Real)
(declare-fun x_127 () Real)
(declare-fun x_128 () Bool)
(declare-fun x_129 () Real)
(declare-fun x_130 () Bool)
(declare-fun x_131 () Bool)
(declare-fun x_132 () Real)
(declare-fun x_133 () Bool)
(declare-fun x_134 () Real)
(declare-fun x_135 () Real)
(declare-fun x_136 () Real)
(declare-fun x_137 () Real)
(declare-fun x_138 () Real)
(declare-fun x_139 () Real)
(declare-fun x_140 () Real)
(declare-fun x_141 () Real)
(declare-fun x_142 () Bool)
(declare-fun x_143 () Real)
(declare-fun x_144 () Bool)
(declare-fun x_145 () Bool)
(declare-fun x_146 () Real)
(declare-fun x_147 () Bool)
(declare-fun x_148 () Real)
(declare-fun x_149 () Real)
(declare-fun x_150 () Real)
(declare-fun x_151 () Real)
(declare-fun x_152 () Real)
(declare-fun x_153 () Real)
(declare-fun x_154 () Real)
(declare-fun x_155 () Real)
(declare-fun x_156 () Bool)
(declare-fun x_157 () Real)
(declare-fun x_158 () Bool)
(declare-fun x_159 () Bool)
(declare-fun x_160 () Real)
(declare-fun x_161 () Bool)
(declare-fun x_162 () Real)
(declare-fun x_163 () Real)
(declare-fun x_164 () Real)
(declare-fun x_165 () Real)
(declare-fun x_166 () Real)
(declare-fun x_167 () Real)
(declare-fun x_168 () Real)
(declare-fun x_169 () Real)
(declare-fun x_170 () Bool)
(declare-fun x_171 () Real)
(declare-fun x_172 () Bool)
(declare-fun x_173 () Bool)
(declare-fun x_174 () Real)
(declare-fun x_175 () Bool)
(declare-fun x_176 () Real)
(declare-fun x_177 () Real)
(declare-fun x_178 () Real)
(declare-fun x_179 () Real)
(declare-fun x_180 () Real)
(declare-fun x_181 () Real)
(declare-fun x_182 () Real)
(declare-fun x_183 () Real)
(declare-fun x_184 () Bool)
(declare-fun x_185 () Real)
(declare-fun x_186 () Real)
(declare-fun x_187 () Bool)
(declare-fun x_188 () Bool)
(declare-fun x_189 () Bool)
(declare-fun x_190 () Bool)
(declare-fun x_191 () Real)
(declare-fun x_192 () Bool)
(declare-fun x_193 () Real)
(declare-fun x_194 () Real)
(declare-fun x_195 () Real)
(declare-fun x_196 () Real)
(assert (let ((?v_123 (= x_40 x_41)) (?v_124 (= x_42 x_43)) (?v_125 (= x_44 x_45)) (?v_121 (= x_46 x_47))) (let ((?v_126 (not ?v_121)) (?v_129 (= x_48 x_49)) (?v_118 (= x_50 x_51)) (?v_119 (= x_7 x_3)) (?v_122 (ite (<= x_42 x_46) x_42 x_46)) (?v_117 (ite (<= x_46 x_42) x_46 x_42)) (?v_110 (= x_67 x_40)) (?v_111 (= x_43 x_68)) (?v_112 (= x_69 x_44)) (?v_108 (= x_47 x_70))) (let ((?v_113 (not ?v_108)) (?v_116 (= x_71 x_48)) (?v_105 (= x_72 x_50)) (?v_106 (= x_11 x_7)) (?v_109 (ite (<= x_43 x_47) x_43 x_47)) (?v_104 (ite (<= x_47 x_43) x_47 x_43)) (?v_97 (= x_81 x_67)) (?v_98 (= x_68 x_82)) (?v_99 (= x_83 x_69)) (?v_95 (= x_70 x_84))) (let ((?v_100 (not ?v_95)) (?v_103 (= x_85 x_71)) (?v_92 (= x_86 x_72)) (?v_93 (= x_15 x_11)) (?v_96 (ite (<= x_68 x_70) x_68 x_70)) (?v_91 (ite (<= x_70 x_68) x_70 x_68)) (?v_84 (= x_95 x_81)) (?v_85 (= x_82 x_96)) (?v_86 (= x_97 x_83)) (?v_82 (= x_84 x_98))) (let ((?v_87 (not ?v_82)) (?v_90 (= x_99 x_85)) (?v_79 (= x_100 x_86)) (?v_80 (= x_19 x_15)) (?v_83 (ite (<= x_82 x_84) x_82 x_84)) (?v_78 (ite (<= x_84 x_82) x_84 x_82)) (?v_71 (= x_109 x_95)) (?v_72 (= x_96 x_110)) (?v_73 (= x_111 x_97)) (?v_69 (= x_98 x_112))) (let ((?v_74 (not ?v_69)) (?v_77 (= x_113 x_99)) (?v_66 (= x_114 x_100)) (?v_67 (= x_23 x_19)) (?v_70 (ite (<= x_96 x_98) x_96 x_98)) (?v_65 (ite (<= x_98 x_96) x_98 x_96)) (?v_58 (= x_123 x_109)) (?v_59 (= x_110 x_124)) (?v_60 (= x_125 x_111)) (?v_56 (= x_112 x_126))) (let ((?v_61 (not ?v_56)) (?v_64 (= x_127 x_113)) (?v_53 (= x_128 x_114)) (?v_54 (= x_27 x_23)) (?v_57 (ite (<= x_110 x_112) x_110 x_112)) (?v_52 (ite (<= x_112 x_110) x_112 x_110)) (?v_45 (= x_137 x_123)) (?v_46 (= x_124 x_138)) (?v_47 (= x_139 x_125)) (?v_43 (= x_126 x_140))) (let ((?v_48 (not ?v_43)) (?v_51 (= x_141 x_127)) (?v_40 (= x_142 x_128)) (?v_41 (= x_31 x_27)) (?v_44 (ite (<= x_124 x_126) x_124 x_126)) (?v_39 (ite (<= x_126 x_124) x_126 x_124)) (?v_32 (= x_151 x_137)) (?v_33 (= x_138 x_152)) (?v_34 (= x_153 x_139)) (?v_30 (= x_140 x_154))) (let ((?v_35 (not ?v_30)) (?v_38 (= x_155 x_141)) (?v_27 (= x_156 x_142)) (?v_28 (= x_35 x_31)) (?v_31 (ite (<= x_138 x_140) x_138 x_140)) (?v_26 (ite (<= x_140 x_138) x_140 x_138)) (?v_19 (= x_165 x_151)) (?v_20 (= x_152 x_166)) (?v_21 (= x_167 x_153)) (?v_17 (= x_154 x_168))) (let ((?v_22 (not ?v_17)) (?v_25 (= x_169 x_155)) (?v_14 (= x_170 x_156)) (?v_15 (= x_39 x_35)) (?v_18 (ite (<= x_152 x_154) x_152 x_154)) (?v_13 (ite (<= x_154 x_152) x_154 x_152)) (?v_6 (= x_179 x_165)) (?v_7 (= x_166 x_180)) (?v_8 (= x_181 x_167)) (?v_4 (= x_168 x_182))) (let ((?v_9 (not ?v_4)) (?v_12 (= x_183 x_169)) (?v_1 (= x_184 x_170)) (?v_2 (= x_185 x_39)) (?v_5 (ite (<= x_166 x_168) x_166 x_168)) (?v_0 (ite (<= x_168 x_166) x_168 x_166)) (?v_3 (= x_188 x_37)) (?v_11 (= x_39 x_185)) (?v_16 (= x_37 x_33)) (?v_24 (= x_35 x_39)) (?v_29 (= x_33 x_29)) (?v_37 (= x_31 x_35)) (?v_42 (= x_29 x_25)) (?v_50 (= x_27 x_31)) (?v_55 (= x_25 x_21)) (?v_63 (= x_23 x_27)) (?v_68 (= x_21 x_17)) (?v_76 (= x_19 x_23)) (?v_81 (= x_17 x_13)) (?v_89 (= x_15 x_19)) (?v_94 (= x_13 x_9)) (?v_102 (= x_11 x_15)) (?v_107 (= x_9 x_5)) (?v_115 (= x_7 x_11)) (?v_120 (= x_5 x_1)) (?v_128 (= x_3 x_7))) (let ((?v_10 (+ ?v_5 x_54)) (?v_23 (+ ?v_18 x_54)) (?v_36 (+ ?v_31 x_54)) (?v_49 (+ ?v_44 x_54)) (?v_62 (+ ?v_57 x_54)) (?v_75 (+ ?v_70 x_54)) (?v_88 (+ ?v_83 x_54)) (?v_101 (+ ?v_96 x_54)) (?v_114 (+ ?v_109 x_54)) (?v_127 (+ ?v_122 x_54))) (and (and (and (and (and (and (and (and (and (and (and (and (and (and (and (and (and (and (and (and (and (and (and (and (and (and (and (and (and (and (and (and (and (and (and (and (and (and (and (and (and (and (and (and (and (and (and (and (and (and (and (and (and (and (and (and (and (and (and (> x_52 0) (> x_53 0)) (>= x_54 0)) (< x_54 x_52)) (< x_54 x_53)) (>= x_65 0)) (< x_65 x_52)) (< x_65 x_53)) (or (= x_36 x_37) (= x_38 x_39))) (or (= x_32 x_33) (= x_34 x_35))) (or (= x_28 x_29) (= x_30 x_31))) (or (= x_24 x_25) (= x_26 x_27))) (or (= x_20 x_21) (= x_22 x_23))) (or (= x_16 x_17) (= x_18 x_19))) (or (= x_12 x_13) (= x_14 x_15))) (or (= x_8 x_9) (= x_10 x_11))) (or (= x_4 x_5) (= x_6 x_7))) (or (= x_0 x_1) (= x_2 x_3))) (or (and (and (and (and (and (and (and (and (and (= x_186 0) (= x_187 x_175)) (= ?v_0 x_168)) (<= (+ ?v_0 x_52) x_182)) (or ?v_3 (= x_188 x_36))) (= x_189 x_172)) (= x_190 x_173)) (= x_180 x_166)) ?v_1) ?v_2) (and (and (and (and (and (and (and (and (and (= x_186 1) (= x_190 x_172)) (= ?v_0 x_166)) (<= (+ ?v_0 x_53) x_180)) (or (and (and (= x_191 0) ?v_1) ?v_2) (and (and (= x_191 1) (= x_170 x_173)) (= x_184 (not x_170))))) (= x_192 x_175)) (= x_187 x_36)) (= x_193 x_38)) (= x_182 x_168)) ?v_3))) (or (or (and (and (and (= x_194 0) ?v_9) (or (not (<= x_165 ?v_5)) (= x_192 x_170))) ?v_6) (and (and (and (= x_194 1) ?v_4) (xor x_170 x_184)) (= x_179 ?v_10))) (and (and (and (= x_194 2) ?v_4) (= x_170 x_184)) ?v_6))) (or (or (and (and (and (= x_195 0) (not ?v_7)) (or (not (<= x_167 ?v_0)) (= x_189 x_37))) ?v_8) (and (and (and (= x_195 1) ?v_7) (xor x_37 x_188)) (= x_181 (+ ?v_0 x_65)))) (and (and (and (= x_195 2) ?v_7) (= x_37 x_188)) ?v_8))) (or (or (and (and (and (= x_196 0) ?v_9) (or (not (<= x_169 ?v_5)) (= x_193 x_39))) ?v_12) (and (and (and (= x_196 1) ?v_4) (not ?v_11)) (= x_183 ?v_10))) (and (and (and (= x_196 2) ?v_4) ?v_11) ?v_12))) (or (and (and (and (and (and (and (and (and (and (= x_171 0) (= x_36 x_161)) (= ?v_13 x_154)) (<= (+ ?v_13 x_52) x_168)) (or ?v_16 (= x_37 x_32))) (= x_172 x_158)) (= x_173 x_159)) (= x_166 x_152)) ?v_14) ?v_15) (and (and (and (and (and (and (and (and (and (= x_171 1) (= x_173 x_158)) (= ?v_13 x_152)) (<= (+ ?v_13 x_53) x_166)) (or (and (and (= x_174 0) ?v_14) ?v_15) (and (and (= x_174 1) (= x_156 x_159)) (= x_170 (not x_156))))) (= x_175 x_161)) (= x_36 x_32)) (= x_38 x_34)) (= x_168 x_154)) ?v_16))) (or (or (and (and (and (= x_176 0) ?v_22) (or (not (<= x_151 ?v_18)) (= x_175 x_156))) ?v_19) (and (and (and (= x_176 1) ?v_17) (xor x_156 x_170)) (= x_165 ?v_23))) (and (and (and (= x_176 2) ?v_17) (= x_156 x_170)) ?v_19))) (or (or (and (and (and (= x_177 0) (not ?v_20)) (or (not (<= x_153 ?v_13)) (= x_172 x_33))) ?v_21) (and (and (and (= x_177 1) ?v_20) (xor x_33 x_37)) (= x_167 (+ ?v_13 x_65)))) (and (and (and (= x_177 2) ?v_20) (= x_33 x_37)) ?v_21))) (or (or (and (and (and (= x_178 0) ?v_22) (or (not (<= x_155 ?v_18)) (= x_38 x_35))) ?v_25) (and (and (and (= x_178 1) ?v_17) (not ?v_24)) (= x_169 ?v_23))) (and (and (and (= x_178 2) ?v_17) ?v_24) ?v_25))) (or (and (and (and (and (and (and (and (and (and (= x_157 0) (= x_32 x_147)) (= ?v_26 x_140)) (<= (+ ?v_26 x_52) x_154)) (or ?v_29 (= x_33 x_28))) (= x_158 x_144)) (= x_159 x_145)) (= x_152 x_138)) ?v_27) ?v_28) (and (and (and (and (and (and (and (and (and (= x_157 1) (= x_159 x_144)) (= ?v_26 x_138)) (<= (+ ?v_26 x_53) x_152)) (or (and (and (= x_160 0) ?v_27) ?v_28) (and (and (= x_160 1) (= x_142 x_145)) (= x_156 (not x_142))))) (= x_161 x_147)) (= x_32 x_28)) (= x_34 x_30)) (= x_154 x_140)) ?v_29))) (or (or (and (and (and (= x_162 0) ?v_35) (or (not (<= x_137 ?v_31)) (= x_161 x_142))) ?v_32) (and (and (and (= x_162 1) ?v_30) (xor x_142 x_156)) (= x_151 ?v_36))) (and (and (and (= x_162 2) ?v_30) (= x_142 x_156)) ?v_32))) (or (or (and (and (and (= x_163 0) (not ?v_33)) (or (not (<= x_139 ?v_26)) (= x_158 x_29))) ?v_34) (and (and (and (= x_163 1) ?v_33) (xor x_29 x_33)) (= x_153 (+ ?v_26 x_65)))) (and (and (and (= x_163 2) ?v_33) (= x_29 x_33)) ?v_34))) (or (or (and (and (and (= x_164 0) ?v_35) (or (not (<= x_141 ?v_31)) (= x_34 x_31))) ?v_38) (and (and (and (= x_164 1) ?v_30) (not ?v_37)) (= x_155 ?v_36))) (and (and (and (= x_164 2) ?v_30) ?v_37) ?v_38))) (or (and (and (and (and (and (and (and (and (and (= x_143 0) (= x_28 x_133)) (= ?v_39 x_126)) (<= (+ ?v_39 x_52) x_140)) (or ?v_42 (= x_29 x_24))) (= x_144 x_130)) (= x_145 x_131)) (= x_138 x_124)) ?v_40) ?v_41) (and (and (and (and (and (and (and (and (and (= x_143 1) (= x_145 x_130)) (= ?v_39 x_124)) (<= (+ ?v_39 x_53) x_138)) (or (and (and (= x_146 0) ?v_40) ?v_41) (and (and (= x_146 1) (= x_128 x_131)) (= x_142 (not x_128))))) (= x_147 x_133)) (= x_28 x_24)) (= x_30 x_26)) (= x_140 x_126)) ?v_42))) (or (or (and (and (and (= x_148 0) ?v_48) (or (not (<= x_123 ?v_44)) (= x_147 x_128))) ?v_45) (and (and (and (= x_148 1) ?v_43) (xor x_128 x_142)) (= x_137 ?v_49))) (and (and (and (= x_148 2) ?v_43) (= x_128 x_142)) ?v_45))) (or (or (and (and (and (= x_149 0) (not ?v_46)) (or (not (<= x_125 ?v_39)) (= x_144 x_25))) ?v_47) (and (and (and (= x_149 1) ?v_46) (xor x_25 x_29)) (= x_139 (+ ?v_39 x_65)))) (and (and (and (= x_149 2) ?v_46) (= x_25 x_29)) ?v_47))) (or (or (and (and (and (= x_150 0) ?v_48) (or (not (<= x_127 ?v_44)) (= x_30 x_27))) ?v_51) (and (and (and (= x_150 1) ?v_43) (not ?v_50)) (= x_141 ?v_49))) (and (and (and (= x_150 2) ?v_43) ?v_50) ?v_51))) (or (and (and (and (and (and (and (and (and (and (= x_129 0) (= x_24 x_119)) (= ?v_52 x_112)) (<= (+ ?v_52 x_52) x_126)) (or ?v_55 (= x_25 x_20))) (= x_130 x_116)) (= x_131 x_117)) (= x_124 x_110)) ?v_53) ?v_54) (and (and (and (and (and (and (and (and (and (= x_129 1) (= x_131 x_116)) (= ?v_52 x_110)) (<= (+ ?v_52 x_53) x_124)) (or (and (and (= x_132 0) ?v_53) ?v_54) (and (and (= x_132 1) (= x_114 x_117)) (= x_128 (not x_114))))) (= x_133 x_119)) (= x_24 x_20)) (= x_26 x_22)) (= x_126 x_112)) ?v_55))) (or (or (and (and (and (= x_134 0) ?v_61) (or (not (<= x_109 ?v_57)) (= x_133 x_114))) ?v_58) (and (and (and (= x_134 1) ?v_56) (xor x_114 x_128)) (= x_123 ?v_62))) (and (and (and (= x_134 2) ?v_56) (= x_114 x_128)) ?v_58))) (or (or (and (and (and (= x_135 0) (not ?v_59)) (or (not (<= x_111 ?v_52)) (= x_130 x_21))) ?v_60) (and (and (and (= x_135 1) ?v_59) (xor x_21 x_25)) (= x_125 (+ ?v_52 x_65)))) (and (and (and (= x_135 2) ?v_59) (= x_21 x_25)) ?v_60))) (or (or (and (and (and (= x_136 0) ?v_61) (or (not (<= x_113 ?v_57)) (= x_26 x_23))) ?v_64) (and (and (and (= x_136 1) ?v_56) (not ?v_63)) (= x_127 ?v_62))) (and (and (and (= x_136 2) ?v_56) ?v_63) ?v_64))) (or (and (and (and (and (and (and (and (and (and (= x_115 0) (= x_20 x_105)) (= ?v_65 x_98)) (<= (+ ?v_65 x_52) x_112)) (or ?v_68 (= x_21 x_16))) (= x_116 x_102)) (= x_117 x_103)) (= x_110 x_96)) ?v_66) ?v_67) (and (and (and (and (and (and (and (and (and (= x_115 1) (= x_117 x_102)) (= ?v_65 x_96)) (<= (+ ?v_65 x_53) x_110)) (or (and (and (= x_118 0) ?v_66) ?v_67) (and (and (= x_118 1) (= x_100 x_103)) (= x_114 (not x_100))))) (= x_119 x_105)) (= x_20 x_16)) (= x_22 x_18)) (= x_112 x_98)) ?v_68))) (or (or (and (and (and (= x_120 0) ?v_74) (or (not (<= x_95 ?v_70)) (= x_119 x_100))) ?v_71) (and (and (and (= x_120 1) ?v_69) (xor x_100 x_114)) (= x_109 ?v_75))) (and (and (and (= x_120 2) ?v_69) (= x_100 x_114)) ?v_71))) (or (or (and (and (and (= x_121 0) (not ?v_72)) (or (not (<= x_97 ?v_65)) (= x_116 x_17))) ?v_73) (and (and (and (= x_121 1) ?v_72) (xor x_17 x_21)) (= x_111 (+ ?v_65 x_65)))) (and (and (and (= x_121 2) ?v_72) (= x_17 x_21)) ?v_73))) (or (or (and (and (and (= x_122 0) ?v_74) (or (not (<= x_99 ?v_70)) (= x_22 x_19))) ?v_77) (and (and (and (= x_122 1) ?v_69) (not ?v_76)) (= x_113 ?v_75))) (and (and (and (= x_122 2) ?v_69) ?v_76) ?v_77))) (or (and (and (and (and (and (and (and (and (and (= x_101 0) (= x_16 x_91)) (= ?v_78 x_84)) (<= (+ ?v_78 x_52) x_98)) (or ?v_81 (= x_17 x_12))) (= x_102 x_88)) (= x_103 x_89)) (= x_96 x_82)) ?v_79) ?v_80) (and (and (and (and (and (and (and (and (and (= x_101 1) (= x_103 x_88)) (= ?v_78 x_82)) (<= (+ ?v_78 x_53) x_96)) (or (and (and (= x_104 0) ?v_79) ?v_80) (and (and (= x_104 1) (= x_86 x_89)) (= x_100 (not x_86))))) (= x_105 x_91)) (= x_16 x_12)) (= x_18 x_14)) (= x_98 x_84)) ?v_81))) (or (or (and (and (and (= x_106 0) ?v_87) (or (not (<= x_81 ?v_83)) (= x_105 x_86))) ?v_84) (and (and (and (= x_106 1) ?v_82) (xor x_86 x_100)) (= x_95 ?v_88))) (and (and (and (= x_106 2) ?v_82) (= x_86 x_100)) ?v_84))) (or (or (and (and (and (= x_107 0) (not ?v_85)) (or (not (<= x_83 ?v_78)) (= x_102 x_13))) ?v_86) (and (and (and (= x_107 1) ?v_85) (xor x_13 x_17)) (= x_97 (+ ?v_78 x_65)))) (and (and (and (= x_107 2) ?v_85) (= x_13 x_17)) ?v_86))) (or (or (and (and (and (= x_108 0) ?v_87) (or (not (<= x_85 ?v_83)) (= x_18 x_15))) ?v_90) (and (and (and (= x_108 1) ?v_82) (not ?v_89)) (= x_99 ?v_88))) (and (and (and (= x_108 2) ?v_82) ?v_89) ?v_90))) (or (and (and (and (and (and (and (and (and (and (= x_87 0) (= x_12 x_77)) (= ?v_91 x_70)) (<= (+ ?v_91 x_52) x_84)) (or ?v_94 (= x_13 x_8))) (= x_88 x_74)) (= x_89 x_75)) (= x_82 x_68)) ?v_92) ?v_93) (and (and (and (and (and (and (and (and (and (= x_87 1) (= x_89 x_74)) (= ?v_91 x_68)) (<= (+ ?v_91 x_53) x_82)) (or (and (and (= x_90 0) ?v_92) ?v_93) (and (and (= x_90 1) (= x_72 x_75)) (= x_86 (not x_72))))) (= x_91 x_77)) (= x_12 x_8)) (= x_14 x_10)) (= x_84 x_70)) ?v_94))) (or (or (and (and (and (= x_92 0) ?v_100) (or (not (<= x_67 ?v_96)) (= x_91 x_72))) ?v_97) (and (and (and (= x_92 1) ?v_95) (xor x_72 x_86)) (= x_81 ?v_101))) (and (and (and (= x_92 2) ?v_95) (= x_72 x_86)) ?v_97))) (or (or (and (and (and (= x_93 0) (not ?v_98)) (or (not (<= x_69 ?v_91)) (= x_88 x_9))) ?v_99) (and (and (and (= x_93 1) ?v_98) (xor x_9 x_13)) (= x_83 (+ ?v_91 x_65)))) (and (and (and (= x_93 2) ?v_98) (= x_9 x_13)) ?v_99))) (or (or (and (and (and (= x_94 0) ?v_100) (or (not (<= x_71 ?v_96)) (= x_14 x_11))) ?v_103) (and (and (and (= x_94 1) ?v_95) (not ?v_102)) (= x_85 ?v_101))) (and (and (and (= x_94 2) ?v_95) ?v_102) ?v_103))) (or (and (and (and (and (and (and (and (and (and (= x_73 0) (= x_8 x_62)) (= ?v_104 x_47)) (<= (+ ?v_104 x_52) x_70)) (or ?v_107 (= x_9 x_4))) (= x_74 x_57)) (= x_75 x_59)) (= x_68 x_43)) ?v_105) ?v_106) (and (and (and (and (and (and (and (and (and (= x_73 1) (= x_75 x_57)) (= ?v_104 x_43)) (<= (+ ?v_104 x_53) x_68)) (or (and (and (= x_76 0) ?v_105) ?v_106) (and (and (= x_76 1) (= x_50 x_59)) (= x_72 (not x_50))))) (= x_77 x_62)) (= x_8 x_4)) (= x_10 x_6)) (= x_70 x_47)) ?v_107))) (or (or (and (and (and (= x_78 0) ?v_113) (or (not (<= x_40 ?v_109)) (= x_77 x_50))) ?v_110) (and (and (and (= x_78 1) ?v_108) (xor x_50 x_72)) (= x_67 ?v_114))) (and (and (and (= x_78 2) ?v_108) (= x_50 x_72)) ?v_110))) (or (or (and (and (and (= x_79 0) (not ?v_111)) (or (not (<= x_44 ?v_104)) (= x_74 x_5))) ?v_112) (and (and (and (= x_79 1) ?v_111) (xor x_5 x_9)) (= x_69 (+ ?v_104 x_65)))) (and (and (and (= x_79 2) ?v_111) (= x_5 x_9)) ?v_112))) (or (or (and (and (and (= x_80 0) ?v_113) (or (not (<= x_48 ?v_109)) (= x_10 x_7))) ?v_116) (and (and (and (= x_80 1) ?v_108) (not ?v_115)) (= x_71 ?v_114))) (and (and (and (= x_80 2) ?v_108) ?v_115) ?v_116))) (or (and (and (and (and (and (and (and (and (and (= x_55 0) (= x_4 x_56)) (= ?v_117 x_46)) (<= (+ ?v_117 x_52) x_47)) (or ?v_120 (= x_5 x_0))) (= x_57 x_58)) (= x_59 x_60)) (= x_43 x_42)) ?v_118) ?v_119) (and (and (and (and (and (and (and (and (and (= x_55 1) (= x_59 x_58)) (= ?v_117 x_42)) (<= (+ ?v_117 x_53) x_43)) (or (and (and (= x_61 0) ?v_118) ?v_119) (and (and (= x_61 1) (= x_51 x_60)) (= x_50 (not x_51))))) (= x_62 x_56)) (= x_4 x_0)) (= x_6 x_2)) (= x_47 x_46)) ?v_120))) (or (or (and (and (and (= x_63 0) ?v_126) (or (not (<= x_41 ?v_122)) (= x_62 x_51))) ?v_123) (and (and (and (= x_63 1) ?v_121) (xor x_51 x_50)) (= x_40 ?v_127))) (and (and (and (= x_63 2) ?v_121) (= x_51 x_50)) ?v_123))) (or (or (and (and (and (= x_64 0) (not ?v_124)) (or (not (<= x_45 ?v_117)) (= x_57 x_1))) ?v_125) (and (and (and (= x_64 1) ?v_124) (xor x_1 x_5)) (= x_44 (+ ?v_117 x_65)))) (and (and (and (= x_64 2) ?v_124) (= x_1 x_5)) ?v_125))) (or (or (and (and (and (= x_66 0) ?v_126) (or (not (<= x_49 ?v_122)) (= x_6 x_3))) ?v_129) (and (and (and (= x_66 1) ?v_121) (not ?v_128)) (= x_48 ?v_127))) (and (and (and (= x_66 2) ?v_121) ?v_128) ?v_129))) (xor x_187 x_188)) (not (= x_193 x_185))))))))))))))))
(check-sat)
(exit)
